c description: Random 2-CNF over 15 variables and 45 clauses
c generator: CNFgen (0.9.0)
c copyright: (C) 2012-2020 Massimo Lauria <massimo.lauria@uniroma1.it>
c url: https://massimolauria.net/cnfgen
c
p cnf 15 45
6 12 0
11 -15 0
-1 15 0
-3 6 0
-9 -13 0
-4 8 0
9 -12 0
1 2 0
5 -8 0
3 8 0
-5 13 0
-3 4 0
-3 7 0
-1 -10 0
-1 11 0
-9 10 0
-8 11 0
-4 6 0
-8 -11 0
1 11 0
1 5 0
8 10 0
-8 -9 0
-2 -14 0
-9 -11 0
-3 8 0
5 11 0
-5 6 0
-9 14 0
3 -5 0
10 12 0
-7 12 0
10 -11 0
9 11 0
7 -11 0
2 6 0
-4 -6 0
-12 13 0
11 13 0
-6 10 0
-5 15 0
-3 -8 0
-1 -13 0
-4 14 0
4 5 0